 pair_coeff            1           1   1.5000000000000000        1.0000000000000000        2.5000000000000000     
 pair_coeff            2           2   1.5000000000000000        1.0000000000000000        2.5000000000000000     
 pair_coeff            3           3   1.5000000000000000        1.0000000000000000        2.5000000000000000     
 pair_coeff            4           4   1.5000000000000000        1.0000000000000000        2.5000000000000000     
 pair_coeff            5           5   1.5000000000000000        1.0000000000000000        2.5000000000000000     
 pair_coeff            6           6   1.5000000000000000        1.0000000000000000        2.5000000000000000     
 pair_coeff            7           7   1.5000000000000000        1.0000000000000000        2.5000000000000000     
 pair_coeff            8           8   1.5000000000000000        1.0000000000000000        2.5000000000000000     
 pair_coeff            9           9   1.5000000000000000        1.0000000000000000        2.5000000000000000     
 pair_coeff           10          10   1.5000000000000000        1.0000000000000000        2.5000000000000000     
 pair_coeff           11          11   1.5000000000000000        1.0000000000000000        2.5000000000000000     
 pair_coeff           12          12   1.5000000000000000        1.0000000000000000        2.5000000000000000     
 pair_coeff           13          13   1.5000000000000000        1.0000000000000000        2.5000000000000000     
 pair_coeff           14          14   1.5000000000000000        1.0000000000000000        2.5000000000000000     
 pair_coeff           15          15   1.5000000000000000        1.0000000000000000        2.5000000000000000     
 pair_coeff           16          16   1.5000000000000000        1.0000000000000000        2.5000000000000000     
 pair_coeff           17          17   1.5000000000000000        1.0000000000000000        2.5000000000000000     
 pair_coeff           18          18   1.5000000000000000        1.0000000000000000        2.5000000000000000     
 pair_coeff           19          19   1.5000000000000000        1.0000000000000000        2.5000000000000000     
 pair_coeff           20          20   1.5000000000000000        1.0000000000000000        2.5000000000000000     
 pair_coeff           21          21   1.5000000000000000        1.0000000000000000        2.5000000000000000     
 pair_coeff           22          22   1.5000000000000000        1.0000000000000000        2.5000000000000000     
 pair_coeff           23          23   1.5000000000000000        1.0000000000000000        2.5000000000000000     
 pair_coeff           24          24   1.5000000000000000        1.0000000000000000        2.5000000000000000     
 pair_coeff           25          25   1.5000000000000000        1.0000000000000000        2.5000000000000000     
 pair_coeff           26          26   1.5000000000000000        1.0000000000000000        2.5000000000000000     
 pair_coeff           27          27   1.5000000000000000        1.0000000000000000        2.5000000000000000     
 pair_coeff           28          28   1.5000000000000000        1.0000000000000000        2.5000000000000000     
 pair_coeff           29          29   1.5000000000000000        1.0000000000000000        2.5000000000000000     
 pair_coeff           30          30   1.5000000000000000        1.0000000000000000        2.5000000000000000     
 pair_coeff           31          31   1.5000000000000000        1.0000000000000000        2.5000000000000000     
 pair_coeff           32          32   1.5000000000000000        1.0000000000000000        2.5000000000000000     
 pair_coeff           33          33   1.5000000000000000        1.0000000000000000        2.5000000000000000     
 pair_coeff           34          34   1.5000000000000000        1.0000000000000000        2.5000000000000000     
 pair_coeff           35          35   1.5000000000000000        1.0000000000000000        2.5000000000000000     
 pair_coeff           36          36   1.5000000000000000        1.0000000000000000        2.5000000000000000     
 pair_coeff           37          37   1.5000000000000000        1.0000000000000000        2.5000000000000000     
 pair_coeff           38          38   1.5000000000000000        1.0000000000000000        2.5000000000000000     
 pair_coeff           39          39   1.5000000000000000        1.0000000000000000        2.5000000000000000     
 pair_coeff           40          40   1.5000000000000000        1.0000000000000000        2.5000000000000000     
 pair_coeff           41          41   1.5000000000000000        1.0000000000000000        2.5000000000000000     
 pair_coeff           42          42   1.5000000000000000        1.0000000000000000        2.5000000000000000     
 pair_coeff           43          43   1.5000000000000000        1.0000000000000000        2.5000000000000000     
 pair_coeff           44          44   1.5000000000000000        1.0000000000000000        2.5000000000000000     
 pair_coeff           45          45   1.5000000000000000        1.0000000000000000        2.5000000000000000     
 pair_coeff           46          46   1.5000000000000000        1.0000000000000000        2.5000000000000000     
 pair_coeff           47          47   1.5000000000000000        1.0000000000000000        2.5000000000000000     
 pair_coeff           48          48   1.5000000000000000        1.0000000000000000        2.5000000000000000     
 pair_coeff           49          49   1.5000000000000000        1.0000000000000000        2.5000000000000000     
 pair_coeff           50          50   1.5000000000000000        1.0000000000000000        2.5000000000000000     
 pair_coeff           51          51   1.5000000000000000        1.0000000000000000        2.5000000000000000     
 pair_coeff           52          52   1.5000000000000000        1.0000000000000000        2.5000000000000000     
 pair_coeff           53          53   1.5000000000000000        1.0000000000000000        2.5000000000000000     
 pair_coeff           54          54   1.5000000000000000        1.0000000000000000        2.5000000000000000     
 pair_coeff           55          55   1.5000000000000000        1.0000000000000000        2.5000000000000000     
 pair_coeff           56          56   1.5000000000000000        1.0000000000000000        2.5000000000000000     
 pair_coeff           57          57   1.5000000000000000        1.0000000000000000        2.5000000000000000     
 pair_coeff           58          58   1.5000000000000000        1.0000000000000000        2.5000000000000000     
 pair_coeff           59          59   1.5000000000000000        1.0000000000000000        2.5000000000000000     
 pair_coeff           60          60   1.5000000000000000        1.0000000000000000        2.5000000000000000     
 pair_coeff           61          61   1.5000000000000000        1.0000000000000000        2.5000000000000000     
 pair_coeff           62          62   1.5000000000000000        1.0000000000000000        2.5000000000000000     
 pair_coeff           63          63   1.5000000000000000        1.0000000000000000        2.5000000000000000     
 pair_coeff           64          64   1.5000000000000000        1.0000000000000000        2.5000000000000000     
 pair_coeff           65          65   1.5000000000000000        1.0000000000000000        2.5000000000000000     
 pair_coeff           66          66   1.5000000000000000        1.0000000000000000        2.5000000000000000     
 pair_coeff           67          67   1.5000000000000000        1.0000000000000000        2.5000000000000000     
 pair_coeff           68          68   1.5000000000000000        1.0000000000000000        2.5000000000000000     
 pair_coeff           69          69   1.5000000000000000        1.0000000000000000        2.5000000000000000     
 pair_coeff           70          70   1.5000000000000000        1.0000000000000000        2.5000000000000000     
 pair_coeff           71          71   1.5000000000000000        1.0000000000000000        2.5000000000000000     
 pair_coeff           72          72   1.5000000000000000        1.0000000000000000        2.5000000000000000     
 pair_coeff           73          73   1.5000000000000000        1.0000000000000000        2.5000000000000000     
 pair_coeff           74          74   1.5000000000000000        1.0000000000000000        2.5000000000000000     
 pair_coeff           75          75   1.5000000000000000        1.0000000000000000        2.5000000000000000     
 pair_coeff           76          76   1.5000000000000000        1.0000000000000000        2.5000000000000000     
 pair_coeff           77          77   1.5000000000000000        1.0000000000000000        2.5000000000000000     
 pair_coeff           78          78   1.5000000000000000        1.0000000000000000        2.5000000000000000     
 pair_coeff           79          79   1.5000000000000000        1.0000000000000000        2.5000000000000000     
 pair_coeff           80          80   1.5000000000000000        1.0000000000000000        2.5000000000000000     
 pair_coeff           81          81   1.5000000000000000        1.0000000000000000        2.5000000000000000     
 pair_coeff           82          82   1.5000000000000000        1.0000000000000000        2.5000000000000000     
 pair_coeff           83          83   1.5000000000000000        1.0000000000000000        2.5000000000000000     
 pair_coeff           84          84   1.5000000000000000        1.0000000000000000        2.5000000000000000     
 pair_coeff           85          85   1.5000000000000000        1.0000000000000000        2.5000000000000000     
 pair_coeff           86          86   1.5000000000000000        1.0000000000000000        2.5000000000000000     
 pair_coeff           87          87   1.5000000000000000        1.0000000000000000        2.5000000000000000     
 pair_coeff           88          88   1.5000000000000000        1.0000000000000000        2.5000000000000000     
 pair_coeff           89          89   1.5000000000000000        1.0000000000000000        2.5000000000000000     
 pair_coeff           90          90   1.5000000000000000        1.0000000000000000        2.5000000000000000     
 pair_coeff           91          91   1.5000000000000000        1.0000000000000000        2.5000000000000000     
 pair_coeff           92          92   1.5000000000000000        1.0000000000000000        2.5000000000000000     
 pair_coeff           93          93   1.5000000000000000        1.0000000000000000        2.5000000000000000     
 pair_coeff           94          94   1.5000000000000000        1.0000000000000000        2.5000000000000000     
 pair_coeff           95          95   1.5000000000000000        1.0000000000000000        2.5000000000000000     
 pair_coeff           96          96   1.5000000000000000        1.0000000000000000        2.5000000000000000     
 pair_coeff           97          97   1.5000000000000000        1.0000000000000000        2.5000000000000000     
 pair_coeff           98          98   1.5000000000000000        1.0000000000000000        2.5000000000000000     
 pair_coeff           99          99   1.5000000000000000        1.0000000000000000        2.5000000000000000     
 pair_coeff          100         100   1.5000000000000000        1.0000000000000000        2.5000000000000000     
 pair_coeff          101         101   1.5000000000000000        1.0000000000000000        2.5000000000000000     
 pair_coeff          102         102   1.5000000000000000        1.0000000000000000        2.5000000000000000     
 pair_coeff          103         103   1.5000000000000000        1.0000000000000000        2.5000000000000000     
 pair_coeff          104         104   1.5000000000000000        1.0000000000000000        2.5000000000000000     
 pair_coeff          105         105   1.5000000000000000        1.0000000000000000        2.5000000000000000     
 pair_coeff          106         106   1.5000000000000000        1.0000000000000000        2.5000000000000000     
 pair_coeff          107         107   1.5000000000000000        1.0000000000000000        2.5000000000000000     
 pair_coeff          108         108   1.5000000000000000        1.0000000000000000        2.5000000000000000     
 pair_coeff          109         109   1.5000000000000000        1.0000000000000000        2.5000000000000000     
 pair_coeff          110         110   1.5000000000000000        1.0000000000000000        2.5000000000000000     
 pair_coeff          111         111   1.5000000000000000        1.0000000000000000        2.5000000000000000     
 pair_coeff          112         112   1.5000000000000000        1.0000000000000000        2.5000000000000000     
 pair_coeff          113         113   1.5000000000000000        1.0000000000000000        2.5000000000000000     
 pair_coeff          114         114   1.5000000000000000        1.0000000000000000        2.5000000000000000     
 pair_coeff          115         115   1.5000000000000000        1.0000000000000000        2.5000000000000000     
 pair_coeff          116         116   1.5000000000000000        1.0000000000000000        2.5000000000000000     
 pair_coeff          117         117   1.5000000000000000        1.0000000000000000        2.5000000000000000     
 pair_coeff          118         118   1.5000000000000000        1.0000000000000000        2.5000000000000000     
 pair_coeff          119         119   1.5000000000000000        1.0000000000000000        2.5000000000000000     
 pair_coeff          120         120   1.5000000000000000        1.0000000000000000        2.5000000000000000     
 pair_coeff          121         121   1.5000000000000000        1.0000000000000000        2.5000000000000000     
 pair_coeff          122         122   1.5000000000000000        1.0000000000000000        2.5000000000000000     
 pair_coeff          123         123   1.5000000000000000        1.0000000000000000        2.5000000000000000     
 pair_coeff          124         124   1.5000000000000000        1.0000000000000000        2.5000000000000000     
 pair_coeff          125         125   1.5000000000000000        1.0000000000000000        2.5000000000000000     
 pair_coeff          126         126   1.5000000000000000        1.0000000000000000        2.5000000000000000     
 pair_coeff          127         127   1.5000000000000000        1.0000000000000000        2.5000000000000000     
 pair_coeff          128         128   1.5000000000000000        1.0000000000000000        2.5000000000000000     
 pair_coeff          129         129   1.5000000000000000        1.0000000000000000        2.5000000000000000     
 pair_coeff          130         130   1.5000000000000000        1.0000000000000000        2.5000000000000000     
 pair_coeff          131         131   1.5000000000000000        1.0000000000000000        2.5000000000000000     
 pair_coeff          132         132   1.5000000000000000        1.0000000000000000        2.5000000000000000     
 pair_coeff          133         133   1.5000000000000000        1.0000000000000000        2.5000000000000000     
 pair_coeff          134         134   1.5000000000000000        1.0000000000000000        2.5000000000000000     
 pair_coeff          135         135   1.5000000000000000        1.0000000000000000        2.5000000000000000     
 pair_coeff          136         136   1.5000000000000000        1.0000000000000000        2.5000000000000000     
 pair_coeff          137         137   1.5000000000000000        1.0000000000000000        2.5000000000000000     
 pair_coeff          138         138   1.5000000000000000        1.0000000000000000        2.5000000000000000     
 pair_coeff          139         139   1.5000000000000000        1.0000000000000000        2.5000000000000000     
 pair_coeff          140         140   1.5000000000000000        1.0000000000000000        2.5000000000000000     
 pair_coeff          141         141   1.5000000000000000        1.0000000000000000        2.5000000000000000     
 pair_coeff          142         142   1.5000000000000000        1.0000000000000000        2.5000000000000000     
 pair_coeff          143         143   1.5000000000000000        1.0000000000000000        2.5000000000000000     
 pair_coeff          144         144   1.5000000000000000        1.0000000000000000        2.5000000000000000     
 pair_coeff          145         145   1.5000000000000000        1.0000000000000000        2.5000000000000000     
 pair_coeff          146         146   1.5000000000000000        1.0000000000000000        2.5000000000000000     
 pair_coeff          147         147   1.5000000000000000        1.0000000000000000        2.5000000000000000     
 pair_coeff          148         148   1.5000000000000000        1.0000000000000000        2.5000000000000000     
 pair_coeff          149         149   1.5000000000000000        1.0000000000000000        2.5000000000000000     
 pair_coeff          150         150   1.5000000000000000        1.0000000000000000        2.5000000000000000     
 pair_coeff          151         151   1.5000000000000000        1.0000000000000000        2.5000000000000000     
 pair_coeff          152         152   1.5000000000000000        1.0000000000000000        2.5000000000000000     
 pair_coeff          153         153   1.5000000000000000        1.0000000000000000        2.5000000000000000     
 pair_coeff          154         154   1.5000000000000000        1.0000000000000000        2.5000000000000000     
 pair_coeff          155         155   1.5000000000000000        1.0000000000000000        2.5000000000000000     
 pair_coeff          156         156   1.5000000000000000        1.0000000000000000        2.5000000000000000     
 pair_coeff          157         157   1.5000000000000000        1.0000000000000000        2.5000000000000000     
 pair_coeff          158         158   1.5000000000000000        1.0000000000000000        2.5000000000000000     
 pair_coeff          159         159   1.5000000000000000        1.0000000000000000        2.5000000000000000     
 pair_coeff          160         160   1.5000000000000000        1.0000000000000000        2.5000000000000000     
 pair_coeff          161         161   1.5000000000000000        1.0000000000000000        2.5000000000000000     
 pair_coeff          162         162   1.5000000000000000        1.0000000000000000        2.5000000000000000     
 pair_coeff          163         163   1.5000000000000000        1.0000000000000000        2.5000000000000000     
 pair_coeff          164         164   1.5000000000000000        1.0000000000000000        2.5000000000000000     
 pair_coeff          165         165   1.5000000000000000        1.0000000000000000        2.5000000000000000     
 pair_coeff          166         166   1.5000000000000000        1.0000000000000000        2.5000000000000000     
 pair_coeff          167         167   1.5000000000000000        1.0000000000000000        2.5000000000000000     
 pair_coeff          168         168   1.5000000000000000        1.0000000000000000        2.5000000000000000     
 pair_coeff          169         169   1.5000000000000000        1.0000000000000000        2.5000000000000000     
 pair_coeff          170         170   1.5000000000000000        1.0000000000000000        2.5000000000000000     
 pair_coeff          171         171   1.5000000000000000        1.0000000000000000        2.5000000000000000     
 pair_coeff          172         172   1.5000000000000000        1.0000000000000000        2.5000000000000000     
 pair_coeff          173         173   1.5000000000000000        1.0000000000000000        2.5000000000000000     
 pair_coeff          174         174   1.5000000000000000        1.0000000000000000        2.5000000000000000     
 pair_coeff          175         175   1.5000000000000000        1.0000000000000000        2.5000000000000000     
 pair_coeff          176         176   1.5000000000000000        1.0000000000000000        2.5000000000000000     
 pair_coeff          177         177   1.5000000000000000        1.0000000000000000        2.5000000000000000     
 pair_coeff          178         178   1.5000000000000000        1.0000000000000000        2.5000000000000000     
 pair_coeff          179         179   1.5000000000000000        1.0000000000000000        2.5000000000000000     
 pair_coeff          180         180   1.5000000000000000        1.0000000000000000        2.5000000000000000     
 pair_coeff          181         181   1.5000000000000000        1.0000000000000000        2.5000000000000000     
 pair_coeff          182         182   1.5000000000000000        1.0000000000000000        2.5000000000000000     
 pair_coeff          183         183   1.5000000000000000        1.0000000000000000        2.5000000000000000     
 pair_coeff          184         184   1.5000000000000000        1.0000000000000000        2.5000000000000000     
 pair_coeff          185         185   1.5000000000000000        1.0000000000000000        2.5000000000000000     
 pair_coeff          186         186   1.5000000000000000        1.0000000000000000        2.5000000000000000     
 pair_coeff          187         187   1.5000000000000000        1.0000000000000000        2.5000000000000000     
 pair_coeff          188         188   1.5000000000000000        1.0000000000000000        2.5000000000000000     
 pair_coeff          189         189   1.5000000000000000        1.0000000000000000        2.5000000000000000     
 pair_coeff          190         190   1.5000000000000000        1.0000000000000000        2.5000000000000000     
 pair_coeff          191         191   1.5000000000000000        1.0000000000000000        2.5000000000000000     
 pair_coeff          192         192   1.5000000000000000        1.0000000000000000        2.5000000000000000     
 pair_coeff          193         193   1.5000000000000000        1.0000000000000000        2.5000000000000000     
 pair_coeff          194         194   1.5000000000000000        1.0000000000000000        2.5000000000000000     
 pair_coeff          195         195   1.5000000000000000        1.0000000000000000        2.5000000000000000     
 pair_coeff          196         196   1.5000000000000000        1.0000000000000000        2.5000000000000000     
 pair_coeff          197         197   1.5000000000000000        1.0000000000000000        2.5000000000000000     
 pair_coeff          198         198   1.5000000000000000        1.0000000000000000        2.5000000000000000     
 pair_coeff          199         199   1.5000000000000000        1.0000000000000000        2.5000000000000000     
 pair_coeff          200         200   1.5000000000000000        1.0000000000000000        2.5000000000000000     
