 pair_coeff            1           1   3.0000000000000000        1.0000000000000000        2.5000000000000000     
 pair_coeff            2           2   3.0000000000000000        1.0000000000000000        2.5000000000000000     
 pair_coeff            3           3   3.0000000000000000        1.0000000000000000        2.5000000000000000     
 pair_coeff            4           4   3.0000000000000000        1.0000000000000000        2.5000000000000000     
 pair_coeff            5           5   3.0000000000000000        1.0000000000000000        2.5000000000000000     
 pair_coeff            6           6   3.0000000000000000        1.0000000000000000        2.5000000000000000     
 pair_coeff            7           7   3.0000000000000000        1.0000000000000000        2.5000000000000000     
 pair_coeff            8           8   3.0000000000000000        1.0000000000000000        2.5000000000000000     
 pair_coeff            9           9   3.0000000000000000        1.0000000000000000        2.5000000000000000     
 pair_coeff           10          10   3.0000000000000000        1.0000000000000000        2.5000000000000000     
 pair_coeff           11          11   3.0000000000000000        1.0000000000000000        2.5000000000000000     
 pair_coeff           12          12   3.0000000000000000        1.0000000000000000        2.5000000000000000     
 pair_coeff           13          13   3.0000000000000000        1.0000000000000000        2.5000000000000000     
 pair_coeff           14          14   3.0000000000000000        1.0000000000000000        2.5000000000000000     
 pair_coeff           15          15   3.0000000000000000        1.0000000000000000        2.5000000000000000     
 pair_coeff           16          16   3.0000000000000000        1.0000000000000000        2.5000000000000000     
 pair_coeff           17          17   3.0000000000000000        1.0000000000000000        2.5000000000000000     
 pair_coeff           18          18   3.0000000000000000        1.0000000000000000        2.5000000000000000     
 pair_coeff           19          19   3.0000000000000000        1.0000000000000000        2.5000000000000000     
 pair_coeff           20          20   3.0000000000000000        1.0000000000000000        2.5000000000000000     
 pair_coeff           21          21   3.0000000000000000        1.0000000000000000        2.5000000000000000     
 pair_coeff           22          22   3.0000000000000000        1.0000000000000000        2.5000000000000000     
 pair_coeff           23          23   3.0000000000000000        1.0000000000000000        2.5000000000000000     
 pair_coeff           24          24   3.0000000000000000        1.0000000000000000        2.5000000000000000     
 pair_coeff           25          25   3.0000000000000000        1.0000000000000000        2.5000000000000000     
 pair_coeff           26          26   3.0000000000000000        1.0000000000000000        2.5000000000000000     
 pair_coeff           27          27   3.0000000000000000        1.0000000000000000        2.5000000000000000     
 pair_coeff           28          28   3.0000000000000000        1.0000000000000000        2.5000000000000000     
 pair_coeff           29          29   3.0000000000000000        1.0000000000000000        2.5000000000000000     
 pair_coeff           30          30   3.0000000000000000        1.0000000000000000        2.5000000000000000     
 pair_coeff           31          31   3.0000000000000000        1.0000000000000000        2.5000000000000000     
 pair_coeff           32          32   3.0000000000000000        1.0000000000000000        2.5000000000000000     
 pair_coeff           33          33   3.0000000000000000        1.0000000000000000        2.5000000000000000     
 pair_coeff           34          34   3.0000000000000000        1.0000000000000000        2.5000000000000000     
 pair_coeff           35          35   3.0000000000000000        1.0000000000000000        2.5000000000000000     
 pair_coeff           36          36   3.0000000000000000        1.0000000000000000        2.5000000000000000     
 pair_coeff           37          37   3.0000000000000000        1.0000000000000000        2.5000000000000000     
 pair_coeff           38          38   3.0000000000000000        1.0000000000000000        2.5000000000000000     
 pair_coeff           39          39   3.0000000000000000        1.0000000000000000        2.5000000000000000     
 pair_coeff           40          40   3.0000000000000000        1.0000000000000000        2.5000000000000000     
 pair_coeff           41          41   3.0000000000000000        1.0000000000000000        2.5000000000000000     
 pair_coeff           42          42   3.0000000000000000        1.0000000000000000        2.5000000000000000     
 pair_coeff           43          43   3.0000000000000000        1.0000000000000000        2.5000000000000000     
 pair_coeff           44          44   3.0000000000000000        1.0000000000000000        2.5000000000000000     
 pair_coeff           45          45   3.0000000000000000        1.0000000000000000        2.5000000000000000     
 pair_coeff           46          46   3.0000000000000000        1.0000000000000000        2.5000000000000000     
 pair_coeff           47          47   3.0000000000000000        1.0000000000000000        2.5000000000000000     
 pair_coeff           48          48   3.0000000000000000        1.0000000000000000        2.5000000000000000     
 pair_coeff           49          49   3.0000000000000000        1.0000000000000000        2.5000000000000000     
 pair_coeff           50          50   3.0000000000000000        1.0000000000000000        2.5000000000000000     
 pair_coeff           51          51   3.0000000000000000        1.0000000000000000        2.5000000000000000     
 pair_coeff           52          52   3.0000000000000000        1.0000000000000000        2.5000000000000000     
 pair_coeff           53          53   3.0000000000000000        1.0000000000000000        2.5000000000000000     
 pair_coeff           54          54   3.0000000000000000        1.0000000000000000        2.5000000000000000     
 pair_coeff           55          55   3.0000000000000000        1.0000000000000000        2.5000000000000000     
 pair_coeff           56          56   3.0000000000000000        1.0000000000000000        2.5000000000000000     
 pair_coeff           57          57   3.0000000000000000        1.0000000000000000        2.5000000000000000     
 pair_coeff           58          58   3.0000000000000000        1.0000000000000000        2.5000000000000000     
 pair_coeff           59          59   3.0000000000000000        1.0000000000000000        2.5000000000000000     
 pair_coeff           60          60   3.0000000000000000        1.0000000000000000        2.5000000000000000     
 pair_coeff           61          61   3.0000000000000000        1.0000000000000000        2.5000000000000000     
 pair_coeff           62          62   3.0000000000000000        1.0000000000000000        2.5000000000000000     
 pair_coeff           63          63   3.0000000000000000        1.0000000000000000        2.5000000000000000     
 pair_coeff           64          64   3.0000000000000000        1.0000000000000000        2.5000000000000000     
 pair_coeff           65          65   3.0000000000000000        1.0000000000000000        2.5000000000000000     
 pair_coeff           66          66   3.0000000000000000        1.0000000000000000        2.5000000000000000     
 pair_coeff           67          67   3.0000000000000000        1.0000000000000000        2.5000000000000000     
 pair_coeff           68          68   3.0000000000000000        1.0000000000000000        2.5000000000000000     
 pair_coeff           69          69   3.0000000000000000        1.0000000000000000        2.5000000000000000     
 pair_coeff           70          70   3.0000000000000000        1.0000000000000000        2.5000000000000000     
 pair_coeff           71          71   3.0000000000000000        1.0000000000000000        2.5000000000000000     
 pair_coeff           72          72   3.0000000000000000        1.0000000000000000        2.5000000000000000     
 pair_coeff           73          73   3.0000000000000000        1.0000000000000000        2.5000000000000000     
 pair_coeff           74          74   3.0000000000000000        1.0000000000000000        2.5000000000000000     
 pair_coeff           75          75   3.0000000000000000        1.0000000000000000        2.5000000000000000     
 pair_coeff           76          76   3.0000000000000000        1.0000000000000000        2.5000000000000000     
 pair_coeff           77          77   3.0000000000000000        1.0000000000000000        2.5000000000000000     
 pair_coeff           78          78   3.0000000000000000        1.0000000000000000        2.5000000000000000     
 pair_coeff           79          79   3.0000000000000000        1.0000000000000000        2.5000000000000000     
 pair_coeff           80          80   3.0000000000000000        1.0000000000000000        2.5000000000000000     
 pair_coeff           81          81   3.0000000000000000        1.0000000000000000        2.5000000000000000     
 pair_coeff           82          82   3.0000000000000000        1.0000000000000000        2.5000000000000000     
 pair_coeff           83          83   3.0000000000000000        1.0000000000000000        2.5000000000000000     
 pair_coeff           84          84   3.0000000000000000        1.0000000000000000        2.5000000000000000     
 pair_coeff           85          85   3.0000000000000000        1.0000000000000000        2.5000000000000000     
 pair_coeff           86          86   3.0000000000000000        1.0000000000000000        2.5000000000000000     
 pair_coeff           87          87   3.0000000000000000        1.0000000000000000        2.5000000000000000     
 pair_coeff           88          88   3.0000000000000000        1.0000000000000000        2.5000000000000000     
 pair_coeff           89          89   3.0000000000000000        1.0000000000000000        2.5000000000000000     
 pair_coeff           90          90   3.0000000000000000        1.0000000000000000        2.5000000000000000     
 pair_coeff           91          91   3.0000000000000000        1.0000000000000000        2.5000000000000000     
 pair_coeff           92          92   3.0000000000000000        1.0000000000000000        2.5000000000000000     
 pair_coeff           93          93   3.0000000000000000        1.0000000000000000        2.5000000000000000     
 pair_coeff           94          94   3.0000000000000000        1.0000000000000000        2.5000000000000000     
 pair_coeff           95          95   3.0000000000000000        1.0000000000000000        2.5000000000000000     
 pair_coeff           96          96   3.0000000000000000        1.0000000000000000        2.5000000000000000     
 pair_coeff           97          97   3.0000000000000000        1.0000000000000000        2.5000000000000000     
 pair_coeff           98          98   3.0000000000000000        1.0000000000000000        2.5000000000000000     
 pair_coeff           99          99   3.0000000000000000        1.0000000000000000        2.5000000000000000     
 pair_coeff          100         100   3.0000000000000000        1.0000000000000000        2.5000000000000000     
 pair_coeff          101         101   3.0000000000000000        1.0000000000000000        2.5000000000000000     
 pair_coeff          102         102   3.0000000000000000        1.0000000000000000        2.5000000000000000     
 pair_coeff          103         103   3.0000000000000000        1.0000000000000000        2.5000000000000000     
 pair_coeff          104         104   3.0000000000000000        1.0000000000000000        2.5000000000000000     
 pair_coeff          105         105   3.0000000000000000        1.0000000000000000        2.5000000000000000     
 pair_coeff          106         106   3.0000000000000000        1.0000000000000000        2.5000000000000000     
 pair_coeff          107         107   3.0000000000000000        1.0000000000000000        2.5000000000000000     
 pair_coeff          108         108   3.0000000000000000        1.0000000000000000        2.5000000000000000     
 pair_coeff          109         109   3.0000000000000000        1.0000000000000000        2.5000000000000000     
 pair_coeff          110         110   3.0000000000000000        1.0000000000000000        2.5000000000000000     
 pair_coeff          111         111   3.0000000000000000        1.0000000000000000        2.5000000000000000     
 pair_coeff          112         112   3.0000000000000000        1.0000000000000000        2.5000000000000000     
 pair_coeff          113         113   3.0000000000000000        1.0000000000000000        2.5000000000000000     
 pair_coeff          114         114   3.0000000000000000        1.0000000000000000        2.5000000000000000     
 pair_coeff          115         115   3.0000000000000000        1.0000000000000000        2.5000000000000000     
 pair_coeff          116         116   3.0000000000000000        1.0000000000000000        2.5000000000000000     
 pair_coeff          117         117   3.0000000000000000        1.0000000000000000        2.5000000000000000     
 pair_coeff          118         118   3.0000000000000000        1.0000000000000000        2.5000000000000000     
 pair_coeff          119         119   3.0000000000000000        1.0000000000000000        2.5000000000000000     
 pair_coeff          120         120   3.0000000000000000        1.0000000000000000        2.5000000000000000     
 pair_coeff          121         121   3.0000000000000000        1.0000000000000000        2.5000000000000000     
 pair_coeff          122         122   3.0000000000000000        1.0000000000000000        2.5000000000000000     
 pair_coeff          123         123   3.0000000000000000        1.0000000000000000        2.5000000000000000     
 pair_coeff          124         124   3.0000000000000000        1.0000000000000000        2.5000000000000000     
 pair_coeff          125         125   3.0000000000000000        1.0000000000000000        2.5000000000000000     
 pair_coeff          126         126   3.0000000000000000        1.0000000000000000        2.5000000000000000     
 pair_coeff          127         127   3.0000000000000000        1.0000000000000000        2.5000000000000000     
 pair_coeff          128         128   3.0000000000000000        1.0000000000000000        2.5000000000000000     
 pair_coeff          129         129   3.0000000000000000        1.0000000000000000        2.5000000000000000     
 pair_coeff          130         130   3.0000000000000000        1.0000000000000000        2.5000000000000000     
 pair_coeff          131         131   3.0000000000000000        1.0000000000000000        2.5000000000000000     
 pair_coeff          132         132   3.0000000000000000        1.0000000000000000        2.5000000000000000     
 pair_coeff          133         133   3.0000000000000000        1.0000000000000000        2.5000000000000000     
 pair_coeff          134         134   3.0000000000000000        1.0000000000000000        2.5000000000000000     
 pair_coeff          135         135   3.0000000000000000        1.0000000000000000        2.5000000000000000     
 pair_coeff          136         136   3.0000000000000000        1.0000000000000000        2.5000000000000000     
 pair_coeff          137         137   3.0000000000000000        1.0000000000000000        2.5000000000000000     
 pair_coeff          138         138   3.0000000000000000        1.0000000000000000        2.5000000000000000     
 pair_coeff          139         139   3.0000000000000000        1.0000000000000000        2.5000000000000000     
 pair_coeff          140         140   3.0000000000000000        1.0000000000000000        2.5000000000000000     
 pair_coeff          141         141   3.0000000000000000        1.0000000000000000        2.5000000000000000     
 pair_coeff          142         142   3.0000000000000000        1.0000000000000000        2.5000000000000000     
 pair_coeff          143         143   3.0000000000000000        1.0000000000000000        2.5000000000000000     
 pair_coeff          144         144   3.0000000000000000        1.0000000000000000        2.5000000000000000     
 pair_coeff          145         145   3.0000000000000000        1.0000000000000000        2.5000000000000000     
 pair_coeff          146         146   3.0000000000000000        1.0000000000000000        2.5000000000000000     
 pair_coeff          147         147   3.0000000000000000        1.0000000000000000        2.5000000000000000     
 pair_coeff          148         148   3.0000000000000000        1.0000000000000000        2.5000000000000000     
 pair_coeff          149         149   3.0000000000000000        1.0000000000000000        2.5000000000000000     
 pair_coeff          150         150   3.0000000000000000        1.0000000000000000        2.5000000000000000     
 pair_coeff          151         151   3.0000000000000000        1.0000000000000000        2.5000000000000000     
 pair_coeff          152         152   3.0000000000000000        1.0000000000000000        2.5000000000000000     
 pair_coeff          153         153   3.0000000000000000        1.0000000000000000        2.5000000000000000     
 pair_coeff          154         154   3.0000000000000000        1.0000000000000000        2.5000000000000000     
 pair_coeff          155         155   3.0000000000000000        1.0000000000000000        2.5000000000000000     
 pair_coeff          156         156   3.0000000000000000        1.0000000000000000        2.5000000000000000     
 pair_coeff          157         157   3.0000000000000000        1.0000000000000000        2.5000000000000000     
 pair_coeff          158         158   3.0000000000000000        1.0000000000000000        2.5000000000000000     
 pair_coeff          159         159   3.0000000000000000        1.0000000000000000        2.5000000000000000     
 pair_coeff          160         160   3.0000000000000000        1.0000000000000000        2.5000000000000000     
 pair_coeff          161         161   3.0000000000000000        1.0000000000000000        2.5000000000000000     
 pair_coeff          162         162   3.0000000000000000        1.0000000000000000        2.5000000000000000     
 pair_coeff          163         163   3.0000000000000000        1.0000000000000000        2.5000000000000000     
 pair_coeff          164         164   3.0000000000000000        1.0000000000000000        2.5000000000000000     
 pair_coeff          165         165   3.0000000000000000        1.0000000000000000        2.5000000000000000     
 pair_coeff          166         166   3.0000000000000000        1.0000000000000000        2.5000000000000000     
 pair_coeff          167         167   3.0000000000000000        1.0000000000000000        2.5000000000000000     
 pair_coeff          168         168   3.0000000000000000        1.0000000000000000        2.5000000000000000     
 pair_coeff          169         169   3.0000000000000000        1.0000000000000000        2.5000000000000000     
 pair_coeff          170         170   3.0000000000000000        1.0000000000000000        2.5000000000000000     
 pair_coeff          171         171   3.0000000000000000        1.0000000000000000        2.5000000000000000     
 pair_coeff          172         172   3.0000000000000000        1.0000000000000000        2.5000000000000000     
 pair_coeff          173         173   3.0000000000000000        1.0000000000000000        2.5000000000000000     
 pair_coeff          174         174   3.0000000000000000        1.0000000000000000        2.5000000000000000     
 pair_coeff          175         175   3.0000000000000000        1.0000000000000000        2.5000000000000000     
 pair_coeff          176         176   3.0000000000000000        1.0000000000000000        2.5000000000000000     
 pair_coeff          177         177   3.0000000000000000        1.0000000000000000        2.5000000000000000     
 pair_coeff          178         178   3.0000000000000000        1.0000000000000000        2.5000000000000000     
 pair_coeff          179         179   3.0000000000000000        1.0000000000000000        2.5000000000000000     
 pair_coeff          180         180   3.0000000000000000        1.0000000000000000        2.5000000000000000     
 pair_coeff          181         181   3.0000000000000000        1.0000000000000000        2.5000000000000000     
 pair_coeff          182         182   3.0000000000000000        1.0000000000000000        2.5000000000000000     
 pair_coeff          183         183   3.0000000000000000        1.0000000000000000        2.5000000000000000     
 pair_coeff          184         184   3.0000000000000000        1.0000000000000000        2.5000000000000000     
 pair_coeff          185         185   3.0000000000000000        1.0000000000000000        2.5000000000000000     
 pair_coeff          186         186   3.0000000000000000        1.0000000000000000        2.5000000000000000     
 pair_coeff          187         187   3.0000000000000000        1.0000000000000000        2.5000000000000000     
 pair_coeff          188         188   3.0000000000000000        1.0000000000000000        2.5000000000000000     
 pair_coeff          189         189   3.0000000000000000        1.0000000000000000        2.5000000000000000     
 pair_coeff          190         190   3.0000000000000000        1.0000000000000000        2.5000000000000000     
 pair_coeff          191         191   3.0000000000000000        1.0000000000000000        2.5000000000000000     
 pair_coeff          192         192   3.0000000000000000        1.0000000000000000        2.5000000000000000     
 pair_coeff          193         193   3.0000000000000000        1.0000000000000000        2.5000000000000000     
 pair_coeff          194         194   3.0000000000000000        1.0000000000000000        2.5000000000000000     
 pair_coeff          195         195   3.0000000000000000        1.0000000000000000        2.5000000000000000     
 pair_coeff          196         196   3.0000000000000000        1.0000000000000000        2.5000000000000000     
 pair_coeff          197         197   3.0000000000000000        1.0000000000000000        2.5000000000000000     
 pair_coeff          198         198   3.0000000000000000        1.0000000000000000        2.5000000000000000     
 pair_coeff          199         199   3.0000000000000000        1.0000000000000000        2.5000000000000000     
 pair_coeff          200         200   3.0000000000000000        1.0000000000000000        2.5000000000000000     
